letting n =  10
letting blocks =  [[1, 1], [1, 5], [1, 6], [1, 10], [2, 5], [3, 3], [3, 9], [3, 10], [4, 4], [5, 4], [5, 8], [6, 1], [6, 5], [6, 7], [6, 9], [7, 3], [7, 7], [7, 9], [8, 4], [8, 5], [8, 6], [8, 7], [8, 8], [9, 1], [9, 4], [9, 5], [9, 8], [9, 9], [10, 2], [10, 3], [10, 4], [10, 6]]
